330 45
1 1 1 1 1
1 1 1 1 1
1 1 1 1 1
1 1 1 1 1
1 1 1 1 1
1 1 1 1 1
1 1 1 1 1
1 1 1 1 1
1 1 1 1 1
3
3 4 6
3
4 5 7
3
1 5 8
3
1 2 9
3
2 3 10
3
2 5 6
3
1 3 7
3
2 4 8
3
3 5 9
3
1 4 10
3
8 9 11
3
9 10 12
3
6 10 13
3
6 7 14
3
7 8 15
3
7 10 11
3
6 8 12
3
7 9 13
3
8 10 14
3
6 9 15
3
1 13 14
3
2 14 15
3
3 11 15
3
4 11 12
3
5 12 13
3
1 12 15
3
2 11 13
3
3 12 14
3
4 13 15
3
5 11 14
3
1 6 11
3
2 7 12
3
3 8 13
3
4 9 14
3
5 10 15
3
18 19 21
3
19 20 22
3
16 20 23
3
16 17 24
3
17 18 25
3
17 20 21
3
16 18 22
3
17 19 23
3
18 20 24
3
16 19 25
3
23 24 26
3
24 25 27
3
21 25 28
3
21 22 29
3
22 23 30
3
22 25 26
3
21 23 27
3
22 24 28
3
23 25 29
3
21 24 30
3
16 28 29
3
17 29 30
3
18 26 30
3
19 26 27
3
20 27 28
3
16 27 30
3
17 26 28
3
18 27 29
3
19 28 30
3
20 26 29
3
16 21 26
3
17 22 27
3
18 23 28
3
19 24 29
3
20 25 30
3
33 34 36
3
34 35 37
3
31 35 38
3
31 32 39
3
32 33 40
3
32 35 36
3
31 33 37
3
32 34 38
3
33 35 39
3
31 34 40
3
38 39 41
3
39 40 42
3
36 40 43
3
36 37 44
3
37 38 45
3
37 40 41
3
36 38 42
3
37 39 43
3
38 40 44
3
36 39 45
3
31 43 44
3
32 44 45
3
33 41 45
3
34 41 42
3
35 42 43
3
31 42 45
3
32 41 43
3
33 42 44
3
34 43 45
3
35 41 44
3
31 36 41
3
32 37 42
3
33 38 43
3
34 39 44
3
35 40 45
3
1 16 31
3
1 17 39
3
1 18 37
3
1 19 40
3
1 20 38
3
1 21 41
3
1 22 33
3
1 23 35
3
1 24 32
3
1 25 34
3
1 26 36
3
1 27 45
3
1 28 44
3
1 29 43
3
1 30 42
3
2 16 39
3
2 17 32
3
2 18 40
3
2 19 38
3
2 20 36
3
2 21 35
3
2 22 42
3
2 23 34
3
2 24 31
3
2 25 33
3
2 26 43
3
2 27 37
3
2 28 41
3
2 29 45
3
2 30 44
3
3 16 37
3
3 17 40
3
3 18 33
3
3 19 36
3
3 20 39
3
3 21 34
3
3 22 31
3
3 23 43
3
3 24 35
3
3 25 32
3
3 26 45
3
3 27 44
3
3 28 38
3
3 29 42
3
3 30 41
3
4 16 40
3
4 17 38
3
4 18 36
3
4 19 34
3
4 20 37
3
4 21 33
3
4 22 35
3
4 23 32
3
4 24 44
3
4 25 31
3
4 26 42
3
4 27 41
3
4 28 45
3
4 29 39
3
4 30 43
3
5 16 38
3
5 17 36
3
5 18 39
3
5 19 37
3
5 20 35
3
5 21 32
3
5 22 34
3
5 23 31
3
5 24 33
3
5 25 45
3
5 26 44
3
5 27 43
3
5 28 42
3
5 29 41
3
5 30 40
3
6 16 41
3
6 17 35
3
6 18 34
3
6 19 33
3
6 20 32
3
6 21 36
3
6 22 44
3
6 23 42
3
6 24 45
3
6 25 43
3
6 26 31
3
6 27 38
3
6 28 40
3
6 29 37
3
6 30 39
3
7 16 33
3
7 17 42
3
7 18 31
3
7 19 35
3
7 20 34
3
7 21 44
3
7 22 37
3
7 23 45
3
7 24 43
3
7 25 41
3
7 26 40
3
7 27 32
3
7 28 39
3
7 29 36
3
7 30 38
3
8 16 35
3
8 17 34
3
8 18 43
3
8 19 32
3
8 20 31
3
8 21 42
3
8 22 45
3
8 23 38
3
8 24 41
3
8 25 44
3
8 26 39
3
8 27 36
3
8 28 33
3
8 29 40
3
8 30 37
3
9 16 32
3
9 17 31
3
9 18 35
3
9 19 44
3
9 20 33
3
9 21 45
3
9 22 43
3
9 23 41
3
9 24 39
3
9 25 42
3
9 26 38
3
9 27 40
3
9 28 37
3
9 29 34
3
9 30 36
3
10 16 34
3
10 17 33
3
10 18 32
3
10 19 31
3
10 20 45
3
10 21 43
3
10 22 41
3
10 23 44
3
10 24 42
3
10 25 40
3
10 26 37
3
10 27 39
3
10 28 36
3
10 29 38
3
10 30 35
3
11 16 36
3
11 17 43
3
11 18 45
3
11 19 42
3
11 20 44
3
11 21 31
3
11 22 40
3
11 23 39
3
11 24 38
3
11 25 37
3
11 26 41
3
11 27 34
3
11 28 32
3
11 29 35
3
11 30 33
3
12 16 45
3
12 17 37
3
12 18 44
3
12 19 41
3
12 20 43
3
12 21 38
3
12 22 32
3
12 23 36
3
12 24 40
3
12 25 39
3
12 26 34
3
12 27 42
3
12 28 35
3
12 29 33
3
12 30 31
3
13 16 44
3
13 17 41
3
13 18 38
3
13 19 45
3
13 20 42
3
13 21 40
3
13 22 39
3
13 23 33
3
13 24 37
3
13 25 36
3
13 26 32
3
13 27 35
3
13 28 43
3
13 29 31
3
13 30 34
3
14 16 43
3
14 17 45
3
14 18 42
3
14 19 39
3
14 20 41
3
14 21 37
3
14 22 36
3
14 23 40
3
14 24 34
3
14 25 38
3
14 26 35
3
14 27 33
3
14 28 31
3
14 29 44
3
14 30 32
3
15 16 42
3
15 17 44
3
15 18 41
3
15 19 43
3
15 20 40
3
15 21 39
3
15 22 38
3
15 23 37
3
15 24 36
3
15 25 35
3
15 26 33
3
15 27 31
3
15 28 34
3
15 29 32
3
15 30 45
